(set-logic QF_SLID_LC)

(declare-sort RefSll_t 0)

(declare-fun next() (Field RefSll_t RefSll_t))

(define-fun ls ((in RefSll_t) (out RefSll_t)) Space (tospace
    (or (and  (= in out) (tobool emp) )
        (exists ((u RefSll_t))
            (and (tobool (ssep (pto in (ref next u)) (ls u out ) )) )
)  ) ) )

;; variables
(declare-fun x0() RefSll_t)
(declare-fun x1() RefSll_t)
(declare-fun x2() RefSll_t)
(declare-fun x3() RefSll_t)
(declare-fun x4() RefSll_t)
(declare-fun x5() RefSll_t)
(declare-fun x6() RefSll_t)
(declare-fun x7() RefSll_t)
(declare-fun x8() RefSll_t)
(declare-fun x9() RefSll_t)
(declare-fun x10() RefSll_t)
(declare-fun x11() RefSll_t)
(declare-fun x12() RefSll_t)
(declare-fun x13() RefSll_t)
(declare-fun x14() RefSll_t)
(declare-fun x15() RefSll_t)
(declare-fun x16() RefSll_t)
(declare-fun x17() RefSll_t)
(declare-fun x18() RefSll_t)
(declare-fun x19() RefSll_t)
(declare-fun x20() RefSll_t)
(declare-fun x21() RefSll_t)
(declare-fun x22() RefSll_t)

(assert 
		(and 

			(distinct x6 x8)
			(distinct x6 x9)
			(distinct x6 x13)
			(distinct x6 x17)
			(distinct x6 x12)
			(distinct x3 x6)
			(distinct x3 x4)
			(distinct x3 x18)
			(distinct x3 x13)
			(distinct x3 x17)
			(distinct x3 x5)
			(distinct x3 x15)
			(distinct x7 x11)
			(distinct x7 x16)
			(distinct x7 x15)
			(distinct x9 x16)
			(distinct x17 x18)
			(distinct x2 x8)
			(distinct x2 x11)
			(distinct x2 x18)
			(distinct x2 x3)
			(distinct x2 x10)
			(distinct x2 x16)
			(distinct x2 x5)
			(distinct x12 x13)
			(distinct x15 x16)
			(distinct x8 x11)
			(distinct x8 x10)
			(distinct x8 x15)
			(distinct x4 x18)
			(distinct x4 x9)
			(distinct x4 x14)
			(distinct x4 x15)
			(distinct x1 x8)
			(distinct x1 x11)
			(distinct x1 x18)
			(distinct x1 x15)
			(distinct x1 x5)
			(distinct x10 x18)
			(distinct x10 x15)
			(distinct x16 x17)
			(distinct x5 x6)
			(distinct x5 x16)
		(tobool (ssep 
			(ls x5 x1 )
			(ls x10 x13 )
			(ls x10 x18 )
			(ls x18 x1 )
			(ls x15 x11 )
			(ls x14 x17 )
			(ls x12 x18 )
			(ls x9 x12 )
			(ls x7 x14 )
			(ls x7 x12 )
			(ls x6 x9 )
		)

		)

) )

(check-sat)
;   sat